c File: flat50_3_0.col
c
c SOURCE: Joseph Culberson (joe@cs.ualberta.ca)
c DESCRIPTION: Quasi-random coloring problem
c              generated with flatness = 0
c                             probability = 0.139
c                             known coloring = 3
c                             random seed = 1266
c              Creation Date:  Tue Jun  9 12:05:10 1998
c Maximum degree = 8 Minimum degree = 2
c p edge 50 115
c cnf created by edge2cnf
p cnf 150 545
-1 -2 0
-1 -3 0
-2 -3 0
1 2 3 0
-4 -5 0
-4 -6 0
-5 -6 0
4 5 6 0
-7 -8 0
-7 -9 0
-8 -9 0
7 8 9 0
-10 -11 0
-10 -12 0
-11 -12 0
10 11 12 0
-13 -14 0
-13 -15 0
-14 -15 0
13 14 15 0
-16 -17 0
-16 -18 0
-17 -18 0
16 17 18 0
-19 -20 0
-19 -21 0
-20 -21 0
19 20 21 0
-22 -23 0
-22 -24 0
-23 -24 0
22 23 24 0
-25 -26 0
-25 -27 0
-26 -27 0
25 26 27 0
-28 -29 0
-28 -30 0
-29 -30 0
28 29 30 0
-31 -32 0
-31 -33 0
-32 -33 0
31 32 33 0
-34 -35 0
-34 -36 0
-35 -36 0
34 35 36 0
-37 -38 0
-37 -39 0
-38 -39 0
37 38 39 0
-40 -41 0
-40 -42 0
-41 -42 0
40 41 42 0
-43 -44 0
-43 -45 0
-44 -45 0
43 44 45 0
-46 -47 0
-46 -48 0
-47 -48 0
46 47 48 0
-49 -50 0
-49 -51 0
-50 -51 0
49 50 51 0
-52 -53 0
-52 -54 0
-53 -54 0
52 53 54 0
-55 -56 0
-55 -57 0
-56 -57 0
55 56 57 0
-58 -59 0
-58 -60 0
-59 -60 0
58 59 60 0
-61 -62 0
-61 -63 0
-62 -63 0
61 62 63 0
-64 -65 0
-64 -66 0
-65 -66 0
64 65 66 0
-67 -68 0
-67 -69 0
-68 -69 0
67 68 69 0
-70 -71 0
-70 -72 0
-71 -72 0
70 71 72 0
-73 -74 0
-73 -75 0
-74 -75 0
73 74 75 0
-76 -77 0
-76 -78 0
-77 -78 0
76 77 78 0
-79 -80 0
-79 -81 0
-80 -81 0
79 80 81 0
-82 -83 0
-82 -84 0
-83 -84 0
82 83 84 0
-85 -86 0
-85 -87 0
-86 -87 0
85 86 87 0
-88 -89 0
-88 -90 0
-89 -90 0
88 89 90 0
-91 -92 0
-91 -93 0
-92 -93 0
91 92 93 0
-94 -95 0
-94 -96 0
-95 -96 0
94 95 96 0
-97 -98 0
-97 -99 0
-98 -99 0
97 98 99 0
-100 -101 0
-100 -102 0
-101 -102 0
100 101 102 0
-103 -104 0
-103 -105 0
-104 -105 0
103 104 105 0
-106 -107 0
-106 -108 0
-107 -108 0
106 107 108 0
-109 -110 0
-109 -111 0
-110 -111 0
109 110 111 0
-112 -113 0
-112 -114 0
-113 -114 0
112 113 114 0
-115 -116 0
-115 -117 0
-116 -117 0
115 116 117 0
-118 -119 0
-118 -120 0
-119 -120 0
118 119 120 0
-121 -122 0
-121 -123 0
-122 -123 0
121 122 123 0
-124 -125 0
-124 -126 0
-125 -126 0
124 125 126 0
-127 -128 0
-127 -129 0
-128 -129 0
127 128 129 0
-130 -131 0
-130 -132 0
-131 -132 0
130 131 132 0
-133 -134 0
-133 -135 0
-134 -135 0
133 134 135 0
-136 -137 0
-136 -138 0
-137 -138 0
136 137 138 0
-139 -140 0
-139 -141 0
-140 -141 0
139 140 141 0
-142 -143 0
-142 -144 0
-143 -144 0
142 143 144 0
-145 -146 0
-145 -147 0
-146 -147 0
145 146 147 0
-148 -149 0
-148 -150 0
-149 -150 0
148 149 150 0
-67 -1 0
-68 -2 0
-69 -3 0
-91 -1 0
-92 -2 0
-93 -3 0
-109 -1 0
-110 -2 0
-111 -3 0
-148 -1 0
-149 -2 0
-150 -3 0
-94 -4 0
-95 -5 0
-96 -6 0
-97 -4 0
-98 -5 0
-99 -6 0
-118 -4 0
-119 -5 0
-120 -6 0
-139 -4 0
-140 -5 0
-141 -6 0
-67 -7 0
-68 -8 0
-69 -9 0
-82 -7 0
-83 -8 0
-84 -9 0
-97 -7 0
-98 -8 0
-99 -9 0
-103 -7 0
-104 -8 0
-105 -9 0
-55 -10 0
-56 -11 0
-57 -12 0
-58 -10 0
-59 -11 0
-60 -12 0
-112 -10 0
-113 -11 0
-114 -12 0
-115 -10 0
-116 -11 0
-117 -12 0
-148 -10 0
-149 -11 0
-150 -12 0
-85 -13 0
-86 -14 0
-87 -15 0
-91 -13 0
-92 -14 0
-93 -15 0
-103 -13 0
-104 -14 0
-105 -15 0
-124 -13 0
-125 -14 0
-126 -15 0
-58 -16 0
-59 -17 0
-60 -18 0
-64 -16 0
-65 -17 0
-66 -18 0
-70 -16 0
-71 -17 0
-72 -18 0
-109 -16 0
-110 -17 0
-111 -18 0
-118 -16 0
-119 -17 0
-120 -18 0
-121 -16 0
-122 -17 0
-123 -18 0
-142 -16 0
-143 -17 0
-144 -18 0
-64 -19 0
-65 -20 0
-66 -21 0
-70 -19 0
-71 -20 0
-72 -21 0
-82 -19 0
-83 -20 0
-84 -21 0
-124 -19 0
-125 -20 0
-126 -21 0
-133 -19 0
-134 -20 0
-135 -21 0
-139 -19 0
-140 -20 0
-141 -21 0
-58 -22 0
-59 -23 0
-60 -24 0
-73 -22 0
-74 -23 0
-75 -24 0
-124 -22 0
-125 -23 0
-126 -24 0
-85 -25 0
-86 -26 0
-87 -27 0
-88 -25 0
-89 -26 0
-90 -27 0
-118 -25 0
-119 -26 0
-120 -27 0
-124 -25 0
-125 -26 0
-126 -27 0
-127 -25 0
-128 -26 0
-129 -27 0
-139 -25 0
-140 -26 0
-141 -27 0
-58 -28 0
-59 -29 0
-60 -30 0
-73 -28 0
-74 -29 0
-75 -30 0
-76 -28 0
-77 -29 0
-78 -30 0
-88 -28 0
-89 -29 0
-90 -30 0
-115 -28 0
-116 -29 0
-117 -30 0
-121 -28 0
-122 -29 0
-123 -30 0
-100 -31 0
-101 -32 0
-102 -33 0
-142 -31 0
-143 -32 0
-144 -33 0
-145 -31 0
-146 -32 0
-147 -33 0
-148 -31 0
-149 -32 0
-150 -33 0
-55 -34 0
-56 -35 0
-57 -36 0
-64 -34 0
-65 -35 0
-66 -36 0
-79 -34 0
-80 -35 0
-81 -36 0
-100 -34 0
-101 -35 0
-102 -36 0
-85 -37 0
-86 -38 0
-87 -39 0
-94 -37 0
-95 -38 0
-96 -39 0
-148 -37 0
-149 -38 0
-150 -39 0
-94 -40 0
-95 -41 0
-96 -42 0
-112 -40 0
-113 -41 0
-114 -42 0
-121 -40 0
-122 -41 0
-123 -42 0
-70 -43 0
-71 -44 0
-72 -45 0
-88 -43 0
-89 -44 0
-90 -45 0
-106 -43 0
-107 -44 0
-108 -45 0
-115 -43 0
-116 -44 0
-117 -45 0
-118 -43 0
-119 -44 0
-120 -45 0
-142 -43 0
-143 -44 0
-144 -45 0
-67 -46 0
-68 -47 0
-69 -48 0
-76 -46 0
-77 -47 0
-78 -48 0
-100 -46 0
-101 -47 0
-102 -48 0
-112 -46 0
-113 -47 0
-114 -48 0
-121 -46 0
-122 -47 0
-123 -48 0
-139 -46 0
-140 -47 0
-141 -48 0
-55 -49 0
-56 -50 0
-57 -51 0
-70 -49 0
-71 -50 0
-72 -51 0
-103 -49 0
-104 -50 0
-105 -51 0
-106 -52 0
-107 -53 0
-108 -54 0
-115 -52 0
-116 -53 0
-117 -54 0
-106 -55 0
-107 -56 0
-108 -57 0
-139 -55 0
-140 -56 0
-141 -57 0
-142 -55 0
-143 -56 0
-144 -57 0
-148 -55 0
-149 -56 0
-150 -57 0
-139 -58 0
-140 -59 0
-141 -60 0
-103 -61 0
-104 -62 0
-105 -63 0
-106 -61 0
-107 -62 0
-108 -63 0
-118 -61 0
-119 -62 0
-120 -63 0
-148 -61 0
-149 -62 0
-150 -63 0
-115 -64 0
-116 -65 0
-117 -66 0
-112 -67 0
-113 -68 0
-114 -69 0
-127 -67 0
-128 -68 0
-129 -69 0
-136 -70 0
-137 -71 0
-138 -72 0
-142 -70 0
-143 -71 0
-144 -72 0
-118 -76 0
-119 -77 0
-120 -78 0
-142 -76 0
-143 -77 0
-144 -78 0
-133 -79 0
-134 -80 0
-135 -81 0
-145 -79 0
-146 -80 0
-147 -81 0
-109 -82 0
-110 -83 0
-111 -84 0
-130 -82 0
-131 -83 0
-132 -84 0
-142 -82 0
-143 -83 0
-144 -84 0
-109 -85 0
-110 -86 0
-111 -87 0
-130 -85 0
-131 -86 0
-132 -87 0
-139 -85 0
-140 -86 0
-141 -87 0
-103 -88 0
-104 -89 0
-105 -90 0
-136 -88 0
-137 -89 0
-138 -90 0
-133 -91 0
-134 -92 0
-135 -93 0
-136 -94 0
-137 -95 0
-138 -96 0
-145 -94 0
-146 -95 0
-147 -96 0
-109 -97 0
-110 -98 0
-111 -99 0
-112 -97 0
-113 -98 0
-114 -99 0
-148 -97 0
-149 -98 0
-150 -99 0
-112 -100 0
-113 -101 0
-114 -102 0
-136 -100 0
-137 -101 0
-138 -102 0
-148 -100 0
-149 -101 0
-150 -102 0
